(set-logic QF_LIA)
(declare-fun x0 () Int)
(declare-fun x1 () Int)
(declare-fun x2 () Int)
(declare-fun x3 () Int)
(declare-fun x4 () Int)
(declare-fun x5 () Int)
(declare-fun x6 () Int)
(declare-fun x7 () Int)
(declare-fun x8 () Int)
(declare-fun x9 () Int)
(declare-fun A0 () Bool)
(declare-fun A1 () Bool)
(declare-fun A3 () Bool)
(declare-fun A4 () Bool)
(declare-fun A5 () Bool)
(declare-fun A6 () Bool)
(declare-fun A7 () Bool)
(declare-fun A8 () Bool)
(declare-fun A9 () Bool)
(assert (let ((.def_0 (* (- 1) x3))) (let ((.def_1 (< .def_0 (- 1)))) (let ((.def_2 (and .def_1 A7))) (let ((.def_3 (* 1 x9))) (let ((.def_4 (* (- 1) x8))) (let ((.def_5 (+ .def_4 .def_3))) (let ((.def_6 (< .def_5 (- 1)))) (let ((.def_7 (* (- 1) x6))) (let ((.def_8 (* (- 1) x1))) (let ((.def_9 (+ .def_8 .def_7))) (let ((.def_10 (< .def_9 1))) (let ((.def_11 (not .def_10))) (let ((.def_12 (or .def_11 .def_6))) (let ((.def_13 (or .def_12 .def_2))) (let ((.def_14 (not .def_13))) (let ((.def_15 (* (- 1) x5))) (let ((.def_16 (< .def_15 (- 1)))) (let ((.def_17 (not .def_16))) (let ((.def_18 (and .def_17 A1))) (let ((.def_19 (not .def_18))) (let ((.def_20 (* 1 x1))) (let ((.def_21 (< .def_20 (- 1)))) (let ((.def_22 (not .def_21))) (let ((.def_23 (* 1 x2))) (let ((.def_24 (< .def_23 (- 1)))) (let ((.def_25 (and .def_24 .def_22))) (let ((.def_26 (and .def_25 .def_19))) (let ((.def_27 (= .def_26 .def_14))) (let ((.def_28 (not .def_27))) (let ((.def_29 (not A0))) (let ((.def_30 (= A3 .def_29))) (let ((.def_31 (not .def_30))) (let ((.def_32 (* (- 1) x9))) (let ((.def_33 (* (- 1) x4))) (let ((.def_34 (+ .def_33 .def_32))) (let ((.def_35 (< .def_34 1))) (let ((.def_36 (+ .def_3 .def_33))) (let ((.def_37 (< .def_36 1))) (let ((.def_38 (and .def_37 .def_35))) (let ((.def_39 (and .def_38 .def_31))) (let ((.def_40 (not .def_39))) (let ((.def_41 (* 1 x4))) (let ((.def_42 (< .def_41 1))) (let ((.def_43 (= .def_42 A4))) (let ((.def_44 (not .def_43))) (let ((.def_45 (or A7 .def_29))) (let ((.def_46 (not .def_45))) (let ((.def_47 (and .def_46 .def_44))) (let ((.def_48 (not .def_47))) (let ((.def_49 (or .def_48 .def_40))) (let ((.def_50 (and .def_49 .def_28))) (let ((.def_51 (not A6))) (let ((.def_52 (and .def_51 .def_51))) (let ((.def_53 (* (- 1) x2))) (let ((.def_54 (* 1 x0))) (let ((.def_55 (+ .def_54 .def_53))) (let ((.def_56 (< .def_55 (- 1)))) (let ((.def_57 (and .def_51 .def_56))) (let ((.def_58 (not .def_57))) (let ((.def_59 (and .def_58 .def_52))) (let ((.def_60 (not .def_59))) (let ((.def_61 (< .def_53 (- 1)))) (let ((.def_62 (not .def_61))) (let ((.def_63 (< .def_53 1))) (let ((.def_64 (not .def_63))) (let ((.def_65 (or .def_64 .def_62))) (let ((.def_66 (not A4))) (let ((.def_67 (< .def_33 1))) (let ((.def_68 (= .def_67 .def_66))) (let ((.def_69 (or .def_68 .def_65))) (let ((.def_70 (not .def_69))) (let ((.def_71 (or .def_70 .def_60))) (let ((.def_72 (and A0 A9))) (let ((.def_73 (not .def_72))) (let ((.def_74 (and A1 .def_42))) (let ((.def_75 (or .def_74 .def_73))) (let ((.def_76 (and .def_51 A4))) (let ((.def_77 (< .def_4 (- 1)))) (let ((.def_78 (* 1 x6))) (let ((.def_79 (+ .def_78 .def_8))) (let ((.def_80 (< .def_79 1))) (let ((.def_81 (not .def_80))) (let ((.def_82 (or .def_81 .def_77))) (let ((.def_83 (not .def_82))) (let ((.def_84 (or .def_83 .def_76))) (let ((.def_85 (or .def_84 .def_75))) (let ((.def_86 (not .def_85))) (let ((.def_87 (and .def_86 .def_71))) (let ((.def_88 (not .def_87))) (let ((.def_89 (or .def_88 .def_50))) (let ((.def_90 (= A1 A8))) (let ((.def_91 (not .def_90))) (let ((.def_92 (< .def_20 1))) (let ((.def_93 (not .def_92))) (let ((.def_94 (* (- 1) x7))) (let ((.def_95 (+ .def_94 .def_33))) (let ((.def_96 (< .def_95 (- 1)))) (let ((.def_97 (and .def_96 .def_93))) (let ((.def_98 (or .def_97 .def_91))) (let ((.def_99 (* (- 1) x0))) (let ((.def_100 (+ .def_53 .def_99))) (let ((.def_101 (< .def_100 1))) (let ((.def_102 (or A4 .def_101))) (let ((.def_103 (not A8))) (let ((.def_104 (and .def_103 A3))) (let ((.def_105 (or .def_104 .def_102))) (let ((.def_106 (and .def_105 .def_98))) (let ((.def_107 (not .def_106))) (let ((.def_108 (+ .def_94 .def_41))) (let ((.def_109 (< .def_108 1))) (let ((.def_110 (and .def_29 .def_109))) (let ((.def_111 (not .def_110))) (let ((.def_112 (< .def_8 (- 1)))) (let ((.def_113 (and .def_42 .def_112))) (let ((.def_114 (not .def_113))) (let ((.def_115 (or .def_114 .def_111))) (let ((.def_116 (not .def_115))) (let ((.def_117 (< .def_94 (- 1)))) (let ((.def_118 (and .def_103 .def_117))) (let ((.def_119 (+ .def_33 .def_99))) (let ((.def_120 (< .def_119 (- 1)))) (let ((.def_121 (or .def_29 .def_120))) (let ((.def_122 (not .def_121))) (let ((.def_123 (or .def_122 .def_118))) (let ((.def_124 (not .def_123))) (let ((.def_125 (or .def_124 .def_116))) (let ((.def_126 (or .def_125 .def_107))) (let ((.def_127 (+ .def_23 .def_78))) (let ((.def_128 (< .def_127 1))) (let ((.def_129 (not .def_128))) (let ((.def_130 (* 1 x3))) (let ((.def_131 (+ .def_54 .def_130))) (let ((.def_132 (< .def_131 1))) (let ((.def_133 (or .def_132 .def_129))) (let ((.def_134 (not .def_133))) (let ((.def_135 (+ .def_23 .def_33))) (let ((.def_136 (< .def_135 1))) (let ((.def_137 (not .def_136))) (let ((.def_138 (or A3 .def_137))) (let ((.def_139 (not .def_138))) (let ((.def_140 (= .def_139 .def_134))) (let ((.def_141 (< .def_34 (- 1)))) (let ((.def_142 (not A5))) (let ((.def_143 (or .def_142 .def_141))) (let ((.def_144 (not .def_143))) (let ((.def_145 (or A1 .def_142))) (let ((.def_146 (or .def_145 .def_144))) (let ((.def_147 (not .def_146))) (let ((.def_148 (or .def_147 .def_140))) (let ((.def_149 (not .def_148))) (let ((.def_150 (+ .def_15 .def_53))) (let ((.def_151 (< .def_150 1))) (let ((.def_152 (not .def_151))) (let ((.def_153 (< .def_54 1))) (let ((.def_154 (not .def_153))) (let ((.def_155 (or .def_154 .def_152))) (let ((.def_156 (not .def_155))) (let ((.def_157 (< .def_33 (- 1)))) (let ((.def_158 (not .def_157))) (let ((.def_159 (and .def_158 .def_103))) (let ((.def_160 (or .def_159 .def_156))) (let ((.def_161 (+ .def_15 .def_7))) (let ((.def_162 (< .def_161 1))) (let ((.def_163 (and .def_162 .def_29))) (let ((.def_164 (not .def_163))) (let ((.def_165 (< .def_130 (- 1)))) (let ((.def_166 (not .def_165))) (let ((.def_167 (+ .def_15 .def_41))) (let ((.def_168 (< .def_167 (- 1)))) (let ((.def_169 (not .def_168))) (let ((.def_170 (and .def_169 .def_166))) (let ((.def_171 (= .def_170 .def_164))) (let ((.def_172 (= .def_171 .def_160))) (let ((.def_173 (not .def_172))) (let ((.def_174 (= .def_173 .def_149))) (let ((.def_175 (or .def_174 .def_126))) (let ((.def_176 (not .def_175))) (let ((.def_177 (and .def_176 .def_89))) (let ((.def_178 (not .def_177))) (let ((.def_179 (<= x9 1))) (let ((.def_180 (<= 0 x9))) (let ((.def_181 (<= x8 1))) (let ((.def_182 (<= 0 x8))) (let ((.def_183 (<= x7 1))) (let ((.def_184 (<= 0 x7))) (let ((.def_185 (<= x6 1))) (let ((.def_186 (<= 0 x6))) (let ((.def_187 (<= x5 1))) (let ((.def_188 (<= 0 x5))) (let ((.def_189 (<= x4 1))) (let ((.def_190 (<= 0 x4))) (let ((.def_191 (<= x3 1))) (let ((.def_192 (<= 0 x3))) (let ((.def_193 (<= x2 1))) (let ((.def_194 (<= 0 x2))) (let ((.def_195 (<= x1 1))) (let ((.def_196 (<= 0 x1))) (let ((.def_197 (<= x0 1))) (let ((.def_198 (<= 0 x0))) (let ((.def_199 (and .def_198 .def_197 .def_196 .def_195 .def_194 .def_193 .def_192 .def_191 .def_190 .def_189 .def_188 .def_187 .def_186 .def_185 .def_184 .def_183 .def_182 .def_181 .def_180 .def_179 .def_178))) .def_199)))))))))))))))))))))))))))))))))))))))))))))))))))))))))))))))))))))))))))))))))))))))))))))))))))))))))))))))))))))))))))))))))))))))))))))))))))))))))))))))))))))))))))))))))))))))))))))))))))))))))
(check-sat)
